words_hard_train/1776.qaiger
aag 128 23 0 1 105
2
4
12
14
18
22
26
30
34
44
46
50
54
58
62
66
76
84
98
114
130
146
162
256
6 2 4
8 3 5
10 7 9
16 13 15
20 16 19
24 20 23
28 24 27
32 28 31
36 32 35
38 10 37
40 11 36
42 39 41
48 45 47
52 48 51
56 52 55
60 56 59
64 60 63
68 64 67
70 43 69
72 42 68
74 71 73
78 76 12
80 12 14
82 81 17
86 82 84
88 79 87
90 83 85
92 89 91
94 17 18
96 95 21
100 97 99
102 96 98
104 101 103
106 92 104
108 107 103
110 21 22
112 111 25
116 113 115
118 112 114
120 117 119
122 109 120
124 123 119
126 25 26
128 127 29
132 129 131
134 128 130
136 133 135
138 125 136
140 139 135
142 29 30
144 143 33
148 145 147
150 144 146
152 149 151
154 141 152
156 155 151
158 33 34
160 159 37
164 161 163
166 160 162
168 165 167
170 157 168
172 171 167
174 75 172
176 74 173
178 175 177
180 140 153
182 181 155
184 183 61
186 182 60
188 185 187
190 156 169
192 191 171
194 193 65
196 188 195
198 124 137
200 199 139
202 201 57
204 200 56
206 203 205
208 108 121
210 209 123
212 211 53
214 210 52
216 213 215
218 93 105
220 219 107
222 221 49
224 220 48
226 223 225
228 87 91
230 229 44
232 228 45
234 231 233
236 235 78
238 77 13
240 234 238
242 237 241
244 226 243
246 216 244
248 206 246
250 192 64
252 248 251
254 196 252
256 178 254
i0 1 x2[7]
i1 2 y2[7]
i2 2 y2[0]
i3 2 y2[1]
i4 2 y2[2]
i5 2 y2[3]
i6 2 y2[4]
i7 2 y2[5]
i8 2 y2[6]
i9 2 y1[0]
i10 2 y1[1]
i11 2 y1[2]
i12 2 y1[3]
i13 2 y1[4]
i14 2 y1[5]
i15 2 y1[6]
i16 1 x2[0]
i17 1 x2[1]
i18 1 x2[2]
i19 1 x2[3]
i20 1 x2[4]
i21 1 x2[5]
i22 1 x2[6]
o0 bool[0]
c
simplified
  ==
    xor
      2 y1
      unary minus
        2 y1
    subtract
      1 x2
      2 y2
