words_hard_train/1776.qaiger.qdimacs
p cnf 128 316
a 1 65 38 73 42 49 81 57 0
e 2 3 4 5 6 7 8 9 10 11 12 13 14 15 16 17 18 19 20 21 22 23 24 25 26 27 28 29 30 31 32 33 34 35 36 37 39 40 41 43 44 45 46 47 48 50 51 52 53 54 55 56 58 59 60 61 62 63 64 66 67 68 69 70 71 72 74 75 76 77 78 79 80 82 83 84 85 86 87 88 89 90 91 92 93 94 95 96 97 98 99 100 101 102 103 104 105 106 107 108 109 110 111 112 113 114 115 116 117 118 119 120 121 122 123 124 125 126 127 128 0
-1 -2 3 0
1 -3 0
2 -3 0
1 2 4 0
-1 -4 0
-2 -4 0
3 4 5 0
-3 -5 0
-4 -5 0
6 7 8 0
-6 -8 0
-7 -8 0
-8 9 10 0
8 -10 0
-9 -10 0
-10 11 12 0
10 -12 0
-11 -12 0
-12 13 14 0
12 -14 0
-13 -14 0
-14 15 16 0
14 -16 0
-15 -16 0
-16 17 18 0
16 -18 0
-17 -18 0
-5 18 19 0
5 -19 0
-18 -19 0
5 -18 20 0
-5 -20 0
18 -20 0
19 20 21 0
-19 -21 0
-20 -21 0
22 23 24 0
-22 -24 0
-23 -24 0
-24 25 26 0
24 -26 0
-25 -26 0
-26 27 28 0
26 -28 0
-27 -28 0
-28 29 30 0
28 -30 0
-29 -30 0
-30 31 32 0
30 -32 0
-31 -32 0
-32 33 34 0
32 -34 0
-33 -34 0
21 34 35 0
-21 -35 0
-34 -35 0
-21 -34 36 0
21 -36 0
34 -36 0
35 36 37 0
-35 -37 0
-36 -37 0
-38 -6 39 0
38 -39 0
6 -39 0
-6 -7 40 0
6 -40 0
7 -40 0
40 8 41 0
-40 -41 0
-8 -41 0
-41 -42 43 0
41 -43 0
42 -43 0
39 43 44 0
-39 -44 0
-43 -44 0
41 42 45 0
-41 -45 0
-42 -45 0
44 45 46 0
-44 -46 0
-45 -46 0
8 -9 47 0
-8 -47 0
9 -47 0
47 10 48 0
-47 -48 0
-10 -48 0
48 49 50 0
-48 -50 0
-49 -50 0
-48 -49 51 0
48 -51 0
49 -51 0
50 51 52 0
-50 -52 0
-51 -52 0
-46 -52 53 0
46 -53 0
52 -53 0
53 51 54 0
-53 -54 0
-51 -54 0
10 -11 55 0
-10 -55 0
11 -55 0
55 12 56 0
-55 -56 0
-12 -56 0
56 57 58 0
-56 -58 0
-57 -58 0
-56 -57 59 0
56 -59 0
57 -59 0
58 59 60 0
-58 -60 0
-59 -60 0
54 -60 61 0
-54 -61 0
60 -61 0
61 59 62 0
-61 -62 0
-59 -62 0
12 -13 63 0
-12 -63 0
13 -63 0
63 14 64 0
-63 -64 0
-14 -64 0
64 65 66 0
-64 -66 0
-65 -66 0
-64 -65 67 0
64 -67 0
65 -67 0
66 67 68 0
-66 -68 0
-67 -68 0
62 -68 69 0
-62 -69 0
68 -69 0
69 67 70 0
-69 -70 0
-67 -70 0
14 -15 71 0
-14 -71 0
15 -71 0
71 16 72 0
-71 -72 0
-16 -72 0
72 73 74 0
-72 -74 0
-73 -74 0
-72 -73 75 0
72 -75 0
73 -75 0
74 75 76 0
-74 -76 0
-75 -76 0
70 -76 77 0
-70 -77 0
76 -77 0
77 75 78 0
-77 -78 0
-75 -78 0
16 -17 79 0
-16 -79 0
17 -79 0
79 18 80 0
-79 -80 0
-18 -80 0
80 81 82 0
-80 -82 0
-81 -82 0
-80 -81 83 0
80 -83 0
81 -83 0
82 83 84 0
-82 -84 0
-83 -84 0
78 -84 85 0
-78 -85 0
84 -85 0
85 83 86 0
-85 -86 0
-83 -86 0
37 -86 87 0
-37 -87 0
86 -87 0
-37 86 88 0
37 -88 0
-86 -88 0
87 88 89 0
-87 -89 0
-88 -89 0
-70 76 90 0
70 -90 0
-76 -90 0
90 77 91 0
-90 -91 0
-77 -91 0
91 30 92 0
-91 -92 0
-30 -92 0
-91 -30 93 0
91 -93 0
30 -93 0
92 93 94 0
-92 -94 0
-93 -94 0
-78 84 95 0
78 -95 0
-84 -95 0
95 85 96 0
-95 -96 0
-85 -96 0
96 32 97 0
-96 -97 0
-32 -97 0
-94 97 98 0
94 -98 0
-97 -98 0
-62 68 99 0
62 -99 0
-68 -99 0
99 69 100 0
-99 -100 0
-69 -100 0
100 28 101 0
-100 -101 0
-28 -101 0
-100 -28 102 0
100 -102 0
28 -102 0
101 102 103 0
-101 -103 0
-102 -103 0
-54 60 104 0
54 -104 0
-60 -104 0
104 61 105 0
-104 -105 0
-61 -105 0
105 26 106 0
-105 -106 0
-26 -106 0
-105 -26 107 0
105 -107 0
26 -107 0
106 107 108 0
-106 -108 0
-107 -108 0
46 52 109 0
-46 -109 0
-52 -109 0
109 53 110 0
-109 -110 0
-53 -110 0
110 24 111 0
-110 -111 0
-24 -111 0
-110 -24 112 0
110 -112 0
24 -112 0
111 112 113 0
-111 -113 0
-112 -113 0
43 45 114 0
-43 -114 0
-45 -114 0
114 -22 115 0
-114 -115 0
22 -115 0
-114 22 116 0
114 -116 0
-22 -116 0
115 116 117 0
-115 -117 0
-116 -117 0
117 -39 118 0
-117 -118 0
39 -118 0
38 6 119 0
-38 -119 0
-6 -119 0
-117 -119 120 0
117 -120 0
119 -120 0
118 120 121 0
-118 -121 0
-120 -121 0
-113 121 122 0
113 -122 0
-121 -122 0
-108 -122 123 0
108 -123 0
122 -123 0
-103 -123 124 0
103 -124 0
123 -124 0
-96 -32 125 0
96 -125 0
32 -125 0
-124 125 126 0
124 -126 0
-125 -126 0
-98 -126 127 0
98 -127 0
126 -127 0
-89 -127 128 0
89 -128 0
127 -128 0
128 0
